; benchmark generated from python API
(set-info :status unknown)
(declare-fun cell_1_3 () Int)
(declare-fun cell_1_6 () Int)
(declare-fun cell_1_8 () Int)
(declare-fun cell_2_2 () Int)
(declare-fun cell_2_6 () Int)
(declare-fun cell_3_4 () Int)
(declare-fun cell_3_8 () Int)
(declare-fun cell_4_1 () Int)
(declare-fun cell_4_2 () Int)
(declare-fun cell_5_7 () Int)
(declare-fun cell_5_9 () Int)
(declare-fun cell_6_4 () Int)
(declare-fun cell_6_5 () Int)
(declare-fun cell_7_5 () Int)
(declare-fun cell_7_9 () Int)
(declare-fun cell_8_1 () Int)
(declare-fun cell_8_6 () Int)
(declare-fun cell_9_3 () Int)
(declare-fun cell_9_7 () Int)
(declare-fun cell_1_1 () Int)
(declare-fun cell_2_1 () Int)
(declare-fun cell_3_1 () Int)
(declare-fun cell_5_1 () Int)
(declare-fun cell_6_1 () Int)
(declare-fun cell_7_1 () Int)
(declare-fun cell_9_1 () Int)
(declare-fun cell_1_2 () Int)
(declare-fun cell_3_2 () Int)
(declare-fun cell_5_2 () Int)
(declare-fun cell_6_2 () Int)
(declare-fun cell_7_2 () Int)
(declare-fun cell_8_2 () Int)
(declare-fun cell_9_2 () Int)
(declare-fun cell_2_3 () Int)
(declare-fun cell_3_3 () Int)
(declare-fun cell_4_3 () Int)
(declare-fun cell_5_3 () Int)
(declare-fun cell_6_3 () Int)
(declare-fun cell_7_3 () Int)
(declare-fun cell_8_3 () Int)
(declare-fun cell_1_4 () Int)
(declare-fun cell_2_4 () Int)
(declare-fun cell_4_4 () Int)
(declare-fun cell_5_4 () Int)
(declare-fun cell_7_4 () Int)
(declare-fun cell_8_4 () Int)
(declare-fun cell_9_4 () Int)
(declare-fun cell_1_5 () Int)
(declare-fun cell_2_5 () Int)
(declare-fun cell_3_5 () Int)
(declare-fun cell_4_5 () Int)
(declare-fun cell_5_5 () Int)
(declare-fun cell_8_5 () Int)
(declare-fun cell_9_5 () Int)
(declare-fun cell_3_6 () Int)
(declare-fun cell_4_6 () Int)
(declare-fun cell_5_6 () Int)
(declare-fun cell_6_6 () Int)
(declare-fun cell_7_6 () Int)
(declare-fun cell_9_6 () Int)
(declare-fun cell_1_7 () Int)
(declare-fun cell_2_7 () Int)
(declare-fun cell_3_7 () Int)
(declare-fun cell_4_7 () Int)
(declare-fun cell_6_7 () Int)
(declare-fun cell_7_7 () Int)
(declare-fun cell_8_7 () Int)
(declare-fun cell_2_8 () Int)
(declare-fun cell_4_8 () Int)
(declare-fun cell_5_8 () Int)
(declare-fun cell_6_8 () Int)
(declare-fun cell_7_8 () Int)
(declare-fun cell_8_8 () Int)
(declare-fun cell_9_8 () Int)
(declare-fun cell_1_9 () Int)
(declare-fun cell_2_9 () Int)
(declare-fun cell_3_9 () Int)
(declare-fun cell_4_9 () Int)
(declare-fun cell_6_9 () Int)
(declare-fun cell_8_9 () Int)
(declare-fun cell_9_9 () Int)
(assert
 (= cell_1_3 1))
(assert
 (= cell_1_6 3))
(assert
 (= cell_1_8 2))
(assert
 (= cell_2_2 2))
(assert
 (= cell_2_6 1))
(assert
 (= cell_3_4 2))
(assert
 (= cell_3_8 1))
(assert
 (= cell_4_1 2))
(assert
 (= cell_4_2 1))
(assert
 (= cell_5_7 2))
(assert
 (= cell_5_9 1))
(assert
 (= cell_6_4 1))
(assert
 (= cell_6_5 2))
(assert
 (= cell_7_5 1))
(assert
 (= cell_7_9 2))
(assert
 (= cell_8_1 1))
(assert
 (= cell_8_6 2))
(assert
 (= cell_9_3 2))
(assert
 (= cell_9_7 1))
(assert
 (let (($x1597 (= cell_1_1 9)))
 (let (($x4243 (= cell_1_1 8)))
 (let (($x9433 (= cell_1_1 7)))
 (let (($x7856 (= cell_1_1 6)))
 (let (($x5479 (= cell_1_1 5)))
 (let (($x483 (= cell_1_1 4)))
 (let (($x3144 (= cell_1_1 3)))
 (let (($x9554 (= cell_1_1 2)))
 (let (($x7751 (= cell_1_1 1)))
 (or $x7751 $x9554 $x3144 $x483 $x5479 $x7856 $x9433 $x4243 $x1597)))))))))))
(assert
 (let (($x10112 (= cell_2_1 9)))
 (let (($x1660 (= cell_2_1 8)))
 (let (($x3469 (= cell_2_1 7)))
 (let (($x6947 (= cell_2_1 6)))
 (let (($x2596 (= cell_2_1 5)))
 (let (($x7504 (= cell_2_1 4)))
 (let (($x7296 (= cell_2_1 3)))
 (let (($x9904 (= cell_2_1 2)))
 (let (($x2945 (= cell_2_1 1)))
 (or $x2945 $x9904 $x7296 $x7504 $x2596 $x6947 $x3469 $x1660 $x10112)))))))))))
(assert
 (let (($x3125 (= cell_3_1 9)))
 (let (($x7308 (= cell_3_1 8)))
 (let (($x9214 (= cell_3_1 7)))
 (let (($x8796 (= cell_3_1 6)))
 (let (($x8835 (= cell_3_1 5)))
 (let (($x385 (= cell_3_1 4)))
 (let (($x888 (= cell_3_1 3)))
 (let (($x3435 (= cell_3_1 2)))
 (let (($x5703 (= cell_3_1 1)))
 (or $x5703 $x3435 $x888 $x385 $x8835 $x8796 $x9214 $x7308 $x3125)))))))))))
(assert
 (let (($x9041 (= cell_4_1 2)))
 (or (= cell_4_1 1) $x9041 (= cell_4_1 3) (= cell_4_1 4) (= cell_4_1 5) (= cell_4_1 6) (= cell_4_1 7) (= cell_4_1 8) (= cell_4_1 9))))
(assert
 (let (($x78 (= cell_5_1 9)))
 (let (($x6534 (= cell_5_1 8)))
 (let (($x6150 (= cell_5_1 7)))
 (let (($x4397 (= cell_5_1 6)))
 (let (($x8063 (= cell_5_1 5)))
 (let (($x4984 (= cell_5_1 4)))
 (let (($x3857 (= cell_5_1 3)))
 (let (($x8744 (= cell_5_1 2)))
 (let (($x2165 (= cell_5_1 1)))
 (or $x2165 $x8744 $x3857 $x4984 $x8063 $x4397 $x6150 $x6534 $x78)))))))))))
(assert
 (let (($x1733 (= cell_6_1 9)))
 (let (($x4623 (= cell_6_1 8)))
 (let (($x4755 (= cell_6_1 7)))
 (let (($x4424 (= cell_6_1 6)))
 (let (($x5557 (= cell_6_1 5)))
 (let (($x4574 (= cell_6_1 4)))
 (let (($x5933 (= cell_6_1 3)))
 (let (($x304 (= cell_6_1 2)))
 (let (($x8158 (= cell_6_1 1)))
 (or $x8158 $x304 $x5933 $x4574 $x5557 $x4424 $x4755 $x4623 $x1733)))))))))))
(assert
 (let (($x9651 (= cell_7_1 9)))
 (let (($x249 (= cell_7_1 8)))
 (let (($x9453 (= cell_7_1 7)))
 (let (($x46 (= cell_7_1 6)))
 (let (($x2816 (= cell_7_1 5)))
 (let (($x7566 (= cell_7_1 4)))
 (let (($x435 (= cell_7_1 3)))
 (let (($x8782 (= cell_7_1 2)))
 (let (($x9025 (= cell_7_1 1)))
 (or $x9025 $x8782 $x435 $x7566 $x2816 $x46 $x9453 $x249 $x9651)))))))))))
(assert
 (let (($x9424 (= cell_8_1 1)))
 (or $x9424 (= cell_8_1 2) (= cell_8_1 3) (= cell_8_1 4) (= cell_8_1 5) (= cell_8_1 6) (= cell_8_1 7) (= cell_8_1 8) (= cell_8_1 9))))
(assert
 (let (($x7945 (= cell_9_1 9)))
 (let (($x5075 (= cell_9_1 8)))
 (let (($x8130 (= cell_9_1 7)))
 (let (($x5881 (= cell_9_1 6)))
 (let (($x3487 (= cell_9_1 5)))
 (let (($x10064 (= cell_9_1 4)))
 (let (($x5498 (= cell_9_1 3)))
 (let (($x6772 (= cell_9_1 2)))
 (let (($x4823 (= cell_9_1 1)))
 (or $x4823 $x6772 $x5498 $x10064 $x3487 $x5881 $x8130 $x5075 $x7945)))))))))))
(assert
 (let (($x9679 (= cell_1_2 9)))
 (let (($x4634 (= cell_1_2 8)))
 (let (($x8127 (= cell_1_2 7)))
 (let (($x4223 (= cell_1_2 6)))
 (let (($x922 (= cell_1_2 5)))
 (let (($x6792 (= cell_1_2 4)))
 (let (($x87 (= cell_1_2 3)))
 (let (($x8003 (= cell_1_2 2)))
 (let (($x1798 (= cell_1_2 1)))
 (or $x1798 $x8003 $x87 $x6792 $x922 $x4223 $x8127 $x4634 $x9679)))))))))))
(assert
 (let (($x6338 (= cell_2_2 2)))
 (or (= cell_2_2 1) $x6338 (= cell_2_2 3) (= cell_2_2 4) (= cell_2_2 5) (= cell_2_2 6) (= cell_2_2 7) (= cell_2_2 8) (= cell_2_2 9))))
(assert
 (let (($x5087 (= cell_3_2 9)))
 (let (($x1673 (= cell_3_2 8)))
 (let (($x1174 (= cell_3_2 7)))
 (let (($x321 (= cell_3_2 6)))
 (let (($x1857 (= cell_3_2 5)))
 (let (($x6239 (= cell_3_2 4)))
 (let (($x9358 (= cell_3_2 3)))
 (let (($x1223 (= cell_3_2 2)))
 (let (($x5053 (= cell_3_2 1)))
 (or $x5053 $x1223 $x9358 $x6239 $x1857 $x321 $x1174 $x1673 $x5087)))))))))))
(assert
 (let (($x9738 (= cell_4_2 1)))
 (or $x9738 (= cell_4_2 2) (= cell_4_2 3) (= cell_4_2 4) (= cell_4_2 5) (= cell_4_2 6) (= cell_4_2 7) (= cell_4_2 8) (= cell_4_2 9))))
(assert
 (let (($x7576 (= cell_5_2 9)))
 (let (($x4106 (= cell_5_2 8)))
 (let (($x5083 (= cell_5_2 7)))
 (let (($x8829 (= cell_5_2 6)))
 (let (($x9999 (= cell_5_2 5)))
 (let (($x6712 (= cell_5_2 4)))
 (let (($x391 (= cell_5_2 3)))
 (let (($x6748 (= cell_5_2 2)))
 (let (($x1762 (= cell_5_2 1)))
 (or $x1762 $x6748 $x391 $x6712 $x9999 $x8829 $x5083 $x4106 $x7576)))))))))))
(assert
 (let (($x10030 (= cell_6_2 9)))
 (let (($x6343 (= cell_6_2 8)))
 (let (($x9953 (= cell_6_2 7)))
 (let (($x2758 (= cell_6_2 6)))
 (let (($x7898 (= cell_6_2 5)))
 (let (($x1298 (= cell_6_2 4)))
 (let (($x7638 (= cell_6_2 3)))
 (let (($x6879 (= cell_6_2 2)))
 (let (($x9496 (= cell_6_2 1)))
 (or $x9496 $x6879 $x7638 $x1298 $x7898 $x2758 $x9953 $x6343 $x10030)))))))))))
(assert
 (let (($x5420 (= cell_7_2 9)))
 (let (($x1801 (= cell_7_2 8)))
 (let (($x4182 (= cell_7_2 7)))
 (let (($x920 (= cell_7_2 6)))
 (let (($x8513 (= cell_7_2 5)))
 (let (($x1526 (= cell_7_2 4)))
 (let (($x6698 (= cell_7_2 3)))
 (let (($x8757 (= cell_7_2 2)))
 (let (($x543 (= cell_7_2 1)))
 (or $x543 $x8757 $x6698 $x1526 $x8513 $x920 $x4182 $x1801 $x5420)))))))))))
(assert
 (let (($x23 (= cell_8_2 9)))
 (let (($x4301 (= cell_8_2 8)))
 (let (($x3488 (= cell_8_2 7)))
 (let (($x1111 (= cell_8_2 6)))
 (let (($x3507 (= cell_8_2 5)))
 (let (($x7210 (= cell_8_2 4)))
 (let (($x8026 (= cell_8_2 3)))
 (let (($x5454 (= cell_8_2 2)))
 (let (($x4694 (= cell_8_2 1)))
 (or $x4694 $x5454 $x8026 $x7210 $x3507 $x1111 $x3488 $x4301 $x23)))))))))))
(assert
 (let (($x9486 (= cell_9_2 9)))
 (let (($x8791 (= cell_9_2 8)))
 (let (($x8667 (= cell_9_2 7)))
 (let (($x2958 (= cell_9_2 6)))
 (let (($x8342 (= cell_9_2 5)))
 (let (($x2990 (= cell_9_2 4)))
 (let (($x1024 (= cell_9_2 3)))
 (let (($x6861 (= cell_9_2 2)))
 (let (($x1696 (= cell_9_2 1)))
 (or $x1696 $x6861 $x1024 $x2990 $x8342 $x2958 $x8667 $x8791 $x9486)))))))))))
(assert
 (let (($x1948 (= cell_1_3 1)))
 (or $x1948 (= cell_1_3 2) (= cell_1_3 3) (= cell_1_3 4) (= cell_1_3 5) (= cell_1_3 6) (= cell_1_3 7) (= cell_1_3 8) (= cell_1_3 9))))
(assert
 (let (($x1786 (= cell_2_3 9)))
 (let (($x1033 (= cell_2_3 8)))
 (let (($x5887 (= cell_2_3 7)))
 (let (($x3647 (= cell_2_3 6)))
 (let (($x7874 (= cell_2_3 5)))
 (let (($x6778 (= cell_2_3 4)))
 (let (($x6227 (= cell_2_3 3)))
 (let (($x69 (= cell_2_3 2)))
 (let (($x3813 (= cell_2_3 1)))
 (or $x3813 $x69 $x6227 $x6778 $x7874 $x3647 $x5887 $x1033 $x1786)))))))))))
(assert
 (let (($x9012 (= cell_3_3 9)))
 (let (($x6824 (= cell_3_3 8)))
 (let (($x5893 (= cell_3_3 7)))
 (let (($x549 (= cell_3_3 6)))
 (let (($x9656 (= cell_3_3 5)))
 (let (($x2344 (= cell_3_3 4)))
 (let (($x5032 (= cell_3_3 3)))
 (let (($x1689 (= cell_3_3 2)))
 (let (($x4825 (= cell_3_3 1)))
 (or $x4825 $x1689 $x5032 $x2344 $x9656 $x549 $x5893 $x6824 $x9012)))))))))))
(assert
 (let (($x8442 (= cell_4_3 9)))
 (let (($x7482 (= cell_4_3 8)))
 (let (($x4779 (= cell_4_3 7)))
 (let (($x4231 (= cell_4_3 6)))
 (let (($x3477 (= cell_4_3 5)))
 (let (($x1144 (= cell_4_3 4)))
 (let (($x2904 (= cell_4_3 3)))
 (let (($x4006 (= cell_4_3 2)))
 (let (($x4250 (= cell_4_3 1)))
 (or $x4250 $x4006 $x2904 $x1144 $x3477 $x4231 $x4779 $x7482 $x8442)))))))))))
(assert
 (let (($x1919 (= cell_5_3 9)))
 (let (($x1397 (= cell_5_3 8)))
 (let (($x4183 (= cell_5_3 7)))
 (let (($x8096 (= cell_5_3 6)))
 (let (($x5520 (= cell_5_3 5)))
 (let (($x7865 (= cell_5_3 4)))
 (let (($x9467 (= cell_5_3 3)))
 (let (($x10234 (= cell_5_3 2)))
 (let (($x3114 (= cell_5_3 1)))
 (or $x3114 $x10234 $x9467 $x7865 $x5520 $x8096 $x4183 $x1397 $x1919)))))))))))
(assert
 (let (($x2677 (= cell_6_3 9)))
 (let (($x6140 (= cell_6_3 8)))
 (let (($x5934 (= cell_6_3 7)))
 (let (($x1596 (= cell_6_3 6)))
 (let (($x4352 (= cell_6_3 5)))
 (let (($x4029 (= cell_6_3 4)))
 (let (($x3184 (= cell_6_3 3)))
 (let (($x3204 (= cell_6_3 2)))
 (let (($x7684 (= cell_6_3 1)))
 (or $x7684 $x3204 $x3184 $x4029 $x4352 $x1596 $x5934 $x6140 $x2677)))))))))))
(assert
 (let (($x8608 (= cell_7_3 9)))
 (let (($x4774 (= cell_7_3 8)))
 (let (($x5686 (= cell_7_3 7)))
 (let (($x7216 (= cell_7_3 6)))
 (let (($x9452 (= cell_7_3 5)))
 (let (($x3841 (= cell_7_3 4)))
 (let (($x3481 (= cell_7_3 3)))
 (let (($x614 (= cell_7_3 2)))
 (let (($x6391 (= cell_7_3 1)))
 (or $x6391 $x614 $x3481 $x3841 $x9452 $x7216 $x5686 $x4774 $x8608)))))))))))
(assert
 (let (($x1678 (= cell_8_3 9)))
 (let (($x7182 (= cell_8_3 8)))
 (let (($x4238 (= cell_8_3 7)))
 (let (($x4021 (= cell_8_3 6)))
 (let (($x4423 (= cell_8_3 5)))
 (let (($x1172 (= cell_8_3 4)))
 (let (($x8128 (= cell_8_3 3)))
 (let (($x3792 (= cell_8_3 2)))
 (let (($x3573 (= cell_8_3 1)))
 (or $x3573 $x3792 $x8128 $x1172 $x4423 $x4021 $x4238 $x7182 $x1678)))))))))))
(assert
 (let (($x1993 (= cell_9_3 2)))
 (or (= cell_9_3 1) $x1993 (= cell_9_3 3) (= cell_9_3 4) (= cell_9_3 5) (= cell_9_3 6) (= cell_9_3 7) (= cell_9_3 8) (= cell_9_3 9))))
(assert
 (let (($x761 (= cell_1_4 9)))
 (let (($x6421 (= cell_1_4 8)))
 (let (($x2745 (= cell_1_4 7)))
 (let (($x9407 (= cell_1_4 6)))
 (let (($x10096 (= cell_1_4 5)))
 (let (($x6774 (= cell_1_4 4)))
 (let (($x5923 (= cell_1_4 3)))
 (let (($x3986 (= cell_1_4 2)))
 (let (($x2620 (= cell_1_4 1)))
 (or $x2620 $x3986 $x5923 $x6774 $x10096 $x9407 $x2745 $x6421 $x761)))))))))))
(assert
 (let (($x8391 (= cell_2_4 9)))
 (let (($x9978 (= cell_2_4 8)))
 (let (($x5070 (= cell_2_4 7)))
 (let (($x2415 (= cell_2_4 6)))
 (let (($x5330 (= cell_2_4 5)))
 (let (($x9498 (= cell_2_4 4)))
 (let (($x3919 (= cell_2_4 3)))
 (let (($x4525 (= cell_2_4 2)))
 (let (($x5610 (= cell_2_4 1)))
 (or $x5610 $x4525 $x3919 $x9498 $x5330 $x2415 $x5070 $x9978 $x8391)))))))))))
(assert
 (let (($x3811 (= cell_3_4 2)))
 (or (= cell_3_4 1) $x3811 (= cell_3_4 3) (= cell_3_4 4) (= cell_3_4 5) (= cell_3_4 6) (= cell_3_4 7) (= cell_3_4 8) (= cell_3_4 9))))
(assert
 (let (($x1599 (= cell_4_4 9)))
 (let (($x2424 (= cell_4_4 8)))
 (let (($x1331 (= cell_4_4 7)))
 (let (($x8365 (= cell_4_4 6)))
 (let (($x2764 (= cell_4_4 5)))
 (let (($x6446 (= cell_4_4 4)))
 (let (($x4277 (= cell_4_4 3)))
 (let (($x3847 (= cell_4_4 2)))
 (let (($x1016 (= cell_4_4 1)))
 (or $x1016 $x3847 $x4277 $x6446 $x2764 $x8365 $x1331 $x2424 $x1599)))))))))))
(assert
 (let (($x9546 (= cell_5_4 9)))
 (let (($x6590 (= cell_5_4 8)))
 (let (($x6201 (= cell_5_4 7)))
 (let (($x5902 (= cell_5_4 6)))
 (let (($x1407 (= cell_5_4 5)))
 (let (($x7379 (= cell_5_4 4)))
 (let (($x4758 (= cell_5_4 3)))
 (let (($x3147 (= cell_5_4 2)))
 (let (($x2360 (= cell_5_4 1)))
 (or $x2360 $x3147 $x4758 $x7379 $x1407 $x5902 $x6201 $x6590 $x9546)))))))))))
(assert
 (let (($x3068 (= cell_6_4 1)))
 (or $x3068 (= cell_6_4 2) (= cell_6_4 3) (= cell_6_4 4) (= cell_6_4 5) (= cell_6_4 6) (= cell_6_4 7) (= cell_6_4 8) (= cell_6_4 9))))
(assert
 (let (($x3482 (= cell_7_4 9)))
 (let (($x3963 (= cell_7_4 8)))
 (let (($x5766 (= cell_7_4 7)))
 (let (($x1517 (= cell_7_4 6)))
 (let (($x9715 (= cell_7_4 5)))
 (let (($x7393 (= cell_7_4 4)))
 (let (($x404 (= cell_7_4 3)))
 (let (($x4947 (= cell_7_4 2)))
 (let (($x6640 (= cell_7_4 1)))
 (or $x6640 $x4947 $x404 $x7393 $x9715 $x1517 $x5766 $x3963 $x3482)))))))))))
(assert
 (let (($x3564 (= cell_8_4 9)))
 (let (($x6540 (= cell_8_4 8)))
 (let (($x9861 (= cell_8_4 7)))
 (let (($x5522 (= cell_8_4 6)))
 (let (($x2836 (= cell_8_4 5)))
 (let (($x9952 (= cell_8_4 4)))
 (let (($x9783 (= cell_8_4 3)))
 (let (($x8506 (= cell_8_4 2)))
 (let (($x7771 (= cell_8_4 1)))
 (or $x7771 $x8506 $x9783 $x9952 $x2836 $x5522 $x9861 $x6540 $x3564)))))))))))
(assert
 (let (($x3810 (= cell_9_4 9)))
 (let (($x3088 (= cell_9_4 8)))
 (let (($x7405 (= cell_9_4 7)))
 (let (($x7922 (= cell_9_4 6)))
 (let (($x1295 (= cell_9_4 5)))
 (let (($x1727 (= cell_9_4 4)))
 (let (($x4813 (= cell_9_4 3)))
 (let (($x6576 (= cell_9_4 2)))
 (let (($x10212 (= cell_9_4 1)))
 (or $x10212 $x6576 $x4813 $x1727 $x1295 $x7922 $x7405 $x3088 $x3810)))))))))))
(assert
 (let (($x568 (= cell_1_5 9)))
 (let (($x1008 (= cell_1_5 8)))
 (let (($x3059 (= cell_1_5 7)))
 (let (($x7997 (= cell_1_5 6)))
 (let (($x4061 (= cell_1_5 5)))
 (let (($x1844 (= cell_1_5 4)))
 (let (($x9771 (= cell_1_5 3)))
 (let (($x6157 (= cell_1_5 2)))
 (let (($x1744 (= cell_1_5 1)))
 (or $x1744 $x6157 $x9771 $x1844 $x4061 $x7997 $x3059 $x1008 $x568)))))))))))
(assert
 (let (($x6566 (= cell_2_5 9)))
 (let (($x10140 (= cell_2_5 8)))
 (let (($x9897 (= cell_2_5 7)))
 (let (($x8290 (= cell_2_5 6)))
 (let (($x1659 (= cell_2_5 5)))
 (let (($x4840 (= cell_2_5 4)))
 (let (($x8397 (= cell_2_5 3)))
 (let (($x4757 (= cell_2_5 2)))
 (let (($x5748 (= cell_2_5 1)))
 (or $x5748 $x4757 $x8397 $x4840 $x1659 $x8290 $x9897 $x10140 $x6566)))))))))))
(assert
 (let (($x8672 (= cell_3_5 9)))
 (let (($x8540 (= cell_3_5 8)))
 (let (($x29 (= cell_3_5 7)))
 (let (($x1611 (= cell_3_5 6)))
 (let (($x4881 (= cell_3_5 5)))
 (let (($x5579 (= cell_3_5 4)))
 (let (($x231 (= cell_3_5 3)))
 (let (($x7735 (= cell_3_5 2)))
 (let (($x6316 (= cell_3_5 1)))
 (or $x6316 $x7735 $x231 $x5579 $x4881 $x1611 $x29 $x8540 $x8672)))))))))))
(assert
 (let (($x3049 (= cell_4_5 9)))
 (let (($x9289 (= cell_4_5 8)))
 (let (($x9609 (= cell_4_5 7)))
 (let (($x9024 (= cell_4_5 6)))
 (let (($x2143 (= cell_4_5 5)))
 (let (($x8430 (= cell_4_5 4)))
 (let (($x7542 (= cell_4_5 3)))
 (let (($x9942 (= cell_4_5 2)))
 (let (($x2295 (= cell_4_5 1)))
 (or $x2295 $x9942 $x7542 $x8430 $x2143 $x9024 $x9609 $x9289 $x3049)))))))))))
(assert
 (let (($x7781 (= cell_5_5 9)))
 (let (($x4644 (= cell_5_5 8)))
 (let (($x10245 (= cell_5_5 7)))
 (let (($x334 (= cell_5_5 6)))
 (let (($x8844 (= cell_5_5 5)))
 (let (($x1537 (= cell_5_5 4)))
 (let (($x8060 (= cell_5_5 3)))
 (let (($x7046 (= cell_5_5 2)))
 (let (($x7 (= cell_5_5 1)))
 (or $x7 $x7046 $x8060 $x1537 $x8844 $x334 $x10245 $x4644 $x7781)))))))))))
(assert
 (let (($x3916 (= cell_6_5 2)))
 (or (= cell_6_5 1) $x3916 (= cell_6_5 3) (= cell_6_5 4) (= cell_6_5 5) (= cell_6_5 6) (= cell_6_5 7) (= cell_6_5 8) (= cell_6_5 9))))
(assert
 (let (($x8644 (= cell_7_5 1)))
 (or $x8644 (= cell_7_5 2) (= cell_7_5 3) (= cell_7_5 4) (= cell_7_5 5) (= cell_7_5 6) (= cell_7_5 7) (= cell_7_5 8) (= cell_7_5 9))))
(assert
 (let (($x2368 (= cell_8_5 9)))
 (let (($x4790 (= cell_8_5 8)))
 (let (($x5297 (= cell_8_5 7)))
 (let (($x9996 (= cell_8_5 6)))
 (let (($x7876 (= cell_8_5 5)))
 (let (($x7116 (= cell_8_5 4)))
 (let (($x5862 (= cell_8_5 3)))
 (let (($x3829 (= cell_8_5 2)))
 (let (($x2602 (= cell_8_5 1)))
 (or $x2602 $x3829 $x5862 $x7116 $x7876 $x9996 $x5297 $x4790 $x2368)))))))))))
(assert
 (let (($x7827 (= cell_9_5 9)))
 (let (($x8334 (= cell_9_5 8)))
 (let (($x7450 (= cell_9_5 7)))
 (let (($x4322 (= cell_9_5 6)))
 (let (($x8413 (= cell_9_5 5)))
 (let (($x1294 (= cell_9_5 4)))
 (let (($x5786 (= cell_9_5 3)))
 (let (($x3412 (= cell_9_5 2)))
 (let (($x3277 (= cell_9_5 1)))
 (or $x3277 $x3412 $x5786 $x1294 $x8413 $x4322 $x7450 $x8334 $x7827)))))))))))
(assert
 (let (($x1925 (= cell_1_6 3)))
 (or (= cell_1_6 1) (= cell_1_6 2) $x1925 (= cell_1_6 4) (= cell_1_6 5) (= cell_1_6 6) (= cell_1_6 7) (= cell_1_6 8) (= cell_1_6 9))))
(assert
 (let (($x5910 (= cell_2_6 1)))
 (or $x5910 (= cell_2_6 2) (= cell_2_6 3) (= cell_2_6 4) (= cell_2_6 5) (= cell_2_6 6) (= cell_2_6 7) (= cell_2_6 8) (= cell_2_6 9))))
(assert
 (let (($x8405 (= cell_3_6 9)))
 (let (($x475 (= cell_3_6 8)))
 (let (($x5784 (= cell_3_6 7)))
 (let (($x550 (= cell_3_6 6)))
 (let (($x7867 (= cell_3_6 5)))
 (let (($x8515 (= cell_3_6 4)))
 (let (($x5395 (= cell_3_6 3)))
 (let (($x6232 (= cell_3_6 2)))
 (let (($x6514 (= cell_3_6 1)))
 (or $x6514 $x6232 $x5395 $x8515 $x7867 $x550 $x5784 $x475 $x8405)))))))))))
(assert
 (let (($x268 (= cell_4_6 9)))
 (let (($x1066 (= cell_4_6 8)))
 (let (($x1647 (= cell_4_6 7)))
 (let (($x9011 (= cell_4_6 6)))
 (let (($x6632 (= cell_4_6 5)))
 (let (($x7050 (= cell_4_6 4)))
 (let (($x4932 (= cell_4_6 3)))
 (let (($x6045 (= cell_4_6 2)))
 (let (($x5675 (= cell_4_6 1)))
 (or $x5675 $x6045 $x4932 $x7050 $x6632 $x9011 $x1647 $x1066 $x268)))))))))))
(assert
 (let (($x828 (= cell_5_6 9)))
 (let (($x9010 (= cell_5_6 8)))
 (let (($x8551 (= cell_5_6 7)))
 (let (($x10190 (= cell_5_6 6)))
 (let (($x10090 (= cell_5_6 5)))
 (let (($x8900 (= cell_5_6 4)))
 (let (($x7183 (= cell_5_6 3)))
 (let (($x4919 (= cell_5_6 2)))
 (let (($x7345 (= cell_5_6 1)))
 (or $x7345 $x4919 $x7183 $x8900 $x10090 $x10190 $x8551 $x9010 $x828)))))))))))
(assert
 (let (($x6873 (= cell_6_6 9)))
 (let (($x3794 (= cell_6_6 8)))
 (let (($x468 (= cell_6_6 7)))
 (let (($x4491 (= cell_6_6 6)))
 (let (($x9561 (= cell_6_6 5)))
 (let (($x5722 (= cell_6_6 4)))
 (let (($x4269 (= cell_6_6 3)))
 (let (($x8978 (= cell_6_6 2)))
 (let (($x4166 (= cell_6_6 1)))
 (or $x4166 $x8978 $x4269 $x5722 $x9561 $x4491 $x468 $x3794 $x6873)))))))))))
(assert
 (let (($x6214 (= cell_7_6 9)))
 (let (($x8362 (= cell_7_6 8)))
 (let (($x8239 (= cell_7_6 7)))
 (let (($x7730 (= cell_7_6 6)))
 (let (($x5017 (= cell_7_6 5)))
 (let (($x6160 (= cell_7_6 4)))
 (let (($x8188 (= cell_7_6 3)))
 (let (($x10156 (= cell_7_6 2)))
 (let (($x7590 (= cell_7_6 1)))
 (or $x7590 $x10156 $x8188 $x6160 $x5017 $x7730 $x8239 $x8362 $x6214)))))))))))
(assert
 (let (($x1194 (= cell_8_6 2)))
 (or (= cell_8_6 1) $x1194 (= cell_8_6 3) (= cell_8_6 4) (= cell_8_6 5) (= cell_8_6 6) (= cell_8_6 7) (= cell_8_6 8) (= cell_8_6 9))))
(assert
 (let (($x6609 (= cell_9_6 9)))
 (let (($x5432 (= cell_9_6 8)))
 (let (($x7409 (= cell_9_6 7)))
 (let (($x10114 (= cell_9_6 6)))
 (let (($x7783 (= cell_9_6 5)))
 (let (($x2971 (= cell_9_6 4)))
 (let (($x2314 (= cell_9_6 3)))
 (let (($x2298 (= cell_9_6 2)))
 (let (($x1989 (= cell_9_6 1)))
 (or $x1989 $x2298 $x2314 $x2971 $x7783 $x10114 $x7409 $x5432 $x6609)))))))))))
(assert
 (let (($x715 (= cell_1_7 9)))
 (let (($x5915 (= cell_1_7 8)))
 (let (($x2982 (= cell_1_7 7)))
 (let (($x770 (= cell_1_7 6)))
 (let (($x5792 (= cell_1_7 5)))
 (let (($x1108 (= cell_1_7 4)))
 (let (($x6458 (= cell_1_7 3)))
 (let (($x8364 (= cell_1_7 2)))
 (let (($x8262 (= cell_1_7 1)))
 (or $x8262 $x8364 $x6458 $x1108 $x5792 $x770 $x2982 $x5915 $x715)))))))))))
(assert
 (let (($x2639 (= cell_2_7 9)))
 (let (($x4284 (= cell_2_7 8)))
 (let (($x1510 (= cell_2_7 7)))
 (let (($x4083 (= cell_2_7 6)))
 (let (($x2319 (= cell_2_7 5)))
 (let (($x6815 (= cell_2_7 4)))
 (let (($x2778 (= cell_2_7 3)))
 (let (($x2026 (= cell_2_7 2)))
 (let (($x7330 (= cell_2_7 1)))
 (or $x7330 $x2026 $x2778 $x6815 $x2319 $x4083 $x1510 $x4284 $x2639)))))))))))
(assert
 (let (($x7268 (= cell_3_7 9)))
 (let (($x8432 (= cell_3_7 8)))
 (let (($x58 (= cell_3_7 7)))
 (let (($x5853 (= cell_3_7 6)))
 (let (($x3599 (= cell_3_7 5)))
 (let (($x1226 (= cell_3_7 4)))
 (let (($x822 (= cell_3_7 3)))
 (let (($x10182 (= cell_3_7 2)))
 (let (($x7589 (= cell_3_7 1)))
 (or $x7589 $x10182 $x822 $x1226 $x3599 $x5853 $x58 $x8432 $x7268)))))))))))
(assert
 (let (($x5990 (= cell_4_7 9)))
 (let (($x5886 (= cell_4_7 8)))
 (let (($x7626 (= cell_4_7 7)))
 (let (($x9043 (= cell_4_7 6)))
 (let (($x9933 (= cell_4_7 5)))
 (let (($x1973 (= cell_4_7 4)))
 (let (($x8002 (= cell_4_7 3)))
 (let (($x1917 (= cell_4_7 2)))
 (let (($x7343 (= cell_4_7 1)))
 (or $x7343 $x1917 $x8002 $x1973 $x9933 $x9043 $x7626 $x5886 $x5990)))))))))))
(assert
 (let (($x2898 (= cell_5_7 2)))
 (or (= cell_5_7 1) $x2898 (= cell_5_7 3) (= cell_5_7 4) (= cell_5_7 5) (= cell_5_7 6) (= cell_5_7 7) (= cell_5_7 8) (= cell_5_7 9))))
(assert
 (let (($x7207 (= cell_6_7 9)))
 (let (($x2752 (= cell_6_7 8)))
 (let (($x8842 (= cell_6_7 7)))
 (let (($x5775 (= cell_6_7 6)))
 (let (($x5805 (= cell_6_7 5)))
 (let (($x1796 (= cell_6_7 4)))
 (let (($x5630 (= cell_6_7 3)))
 (let (($x9747 (= cell_6_7 2)))
 (let (($x1724 (= cell_6_7 1)))
 (or $x1724 $x9747 $x5630 $x1796 $x5805 $x5775 $x8842 $x2752 $x7207)))))))))))
(assert
 (let (($x5884 (= cell_7_7 9)))
 (let (($x3978 (= cell_7_7 8)))
 (let (($x9543 (= cell_7_7 7)))
 (let (($x8173 (= cell_7_7 6)))
 (let (($x8189 (= cell_7_7 5)))
 (let (($x6143 (= cell_7_7 4)))
 (let (($x7169 (= cell_7_7 3)))
 (let (($x461 (= cell_7_7 2)))
 (let (($x9132 (= cell_7_7 1)))
 (or $x9132 $x461 $x7169 $x6143 $x8189 $x8173 $x9543 $x3978 $x5884)))))))))))
(assert
 (let (($x1102 (= cell_8_7 9)))
 (let (($x2638 (= cell_8_7 8)))
 (let (($x5734 (= cell_8_7 7)))
 (let (($x1495 (= cell_8_7 6)))
 (let (($x7813 (= cell_8_7 5)))
 (let (($x4164 (= cell_8_7 4)))
 (let (($x8271 (= cell_8_7 3)))
 (let (($x8139 (= cell_8_7 2)))
 (let (($x9755 (= cell_8_7 1)))
 (or $x9755 $x8139 $x8271 $x4164 $x7813 $x1495 $x5734 $x2638 $x1102)))))))))))
(assert
 (let (($x4737 (= cell_9_7 1)))
 (or $x4737 (= cell_9_7 2) (= cell_9_7 3) (= cell_9_7 4) (= cell_9_7 5) (= cell_9_7 6) (= cell_9_7 7) (= cell_9_7 8) (= cell_9_7 9))))
(assert
 (let (($x1453 (= cell_1_8 2)))
 (or (= cell_1_8 1) $x1453 (= cell_1_8 3) (= cell_1_8 4) (= cell_1_8 5) (= cell_1_8 6) (= cell_1_8 7) (= cell_1_8 8) (= cell_1_8 9))))
(assert
 (let (($x1154 (= cell_2_8 9)))
 (let (($x433 (= cell_2_8 8)))
 (let (($x4023 (= cell_2_8 7)))
 (let (($x6980 (= cell_2_8 6)))
 (let (($x1629 (= cell_2_8 5)))
 (let (($x5650 (= cell_2_8 4)))
 (let (($x5787 (= cell_2_8 3)))
 (let (($x3838 (= cell_2_8 2)))
 (let (($x10144 (= cell_2_8 1)))
 (or $x10144 $x3838 $x5787 $x5650 $x1629 $x6980 $x4023 $x433 $x1154)))))))))))
(assert
 (let (($x9653 (= cell_3_8 1)))
 (or $x9653 (= cell_3_8 2) (= cell_3_8 3) (= cell_3_8 4) (= cell_3_8 5) (= cell_3_8 6) (= cell_3_8 7) (= cell_3_8 8) (= cell_3_8 9))))
(assert
 (let (($x3888 (= cell_4_8 9)))
 (let (($x7109 (= cell_4_8 8)))
 (let (($x5932 (= cell_4_8 7)))
 (let (($x2633 (= cell_4_8 6)))
 (let (($x4837 (= cell_4_8 5)))
 (let (($x4405 (= cell_4_8 4)))
 (let (($x37 (= cell_4_8 3)))
 (let (($x2160 (= cell_4_8 2)))
 (let (($x4262 (= cell_4_8 1)))
 (or $x4262 $x2160 $x37 $x4405 $x4837 $x2633 $x5932 $x7109 $x3888)))))))))))
(assert
 (let (($x7494 (= cell_5_8 9)))
 (let (($x1576 (= cell_5_8 8)))
 (let (($x2582 (= cell_5_8 7)))
 (let (($x9396 (= cell_5_8 6)))
 (let (($x6720 (= cell_5_8 5)))
 (let (($x5358 (= cell_5_8 4)))
 (let (($x7370 (= cell_5_8 3)))
 (let (($x9591 (= cell_5_8 2)))
 (let (($x7488 (= cell_5_8 1)))
 (or $x7488 $x9591 $x7370 $x5358 $x6720 $x9396 $x2582 $x1576 $x7494)))))))))))
(assert
 (let (($x5979 (= cell_6_8 9)))
 (let (($x9728 (= cell_6_8 8)))
 (let (($x9109 (= cell_6_8 7)))
 (let (($x3237 (= cell_6_8 6)))
 (let (($x5515 (= cell_6_8 5)))
 (let (($x2630 (= cell_6_8 4)))
 (let (($x2466 (= cell_6_8 3)))
 (let (($x3934 (= cell_6_8 2)))
 (let (($x4412 (= cell_6_8 1)))
 (or $x4412 $x3934 $x2466 $x2630 $x5515 $x3237 $x9109 $x9728 $x5979)))))))))))
(assert
 (let (($x2329 (= cell_7_8 9)))
 (let (($x5064 (= cell_7_8 8)))
 (let (($x6524 (= cell_7_8 7)))
 (let (($x1378 (= cell_7_8 6)))
 (let (($x1159 (= cell_7_8 5)))
 (let (($x4477 (= cell_7_8 4)))
 (let (($x4884 (= cell_7_8 3)))
 (let (($x4937 (= cell_7_8 2)))
 (let (($x5572 (= cell_7_8 1)))
 (or $x5572 $x4937 $x4884 $x4477 $x1159 $x1378 $x6524 $x5064 $x2329)))))))))))
(assert
 (let (($x6017 (= cell_8_8 9)))
 (let (($x806 (= cell_8_8 8)))
 (let (($x3632 (= cell_8_8 7)))
 (let (($x7738 (= cell_8_8 6)))
 (let (($x5220 (= cell_8_8 5)))
 (let (($x6443 (= cell_8_8 4)))
 (let (($x7025 (= cell_8_8 3)))
 (let (($x10227 (= cell_8_8 2)))
 (let (($x4565 (= cell_8_8 1)))
 (or $x4565 $x10227 $x7025 $x6443 $x5220 $x7738 $x3632 $x806 $x6017)))))))))))
(assert
 (let (($x9237 (= cell_9_8 2)))
 (let (($x7257 (= cell_9_8 1)))
 (or $x7257 $x9237 (= cell_9_8 3) (= cell_9_8 4) (= cell_9_8 5) (= cell_9_8 6) (= cell_9_8 7) (= cell_9_8 8) (= cell_9_8 9)))))
(assert
 (let (($x7539 (= cell_1_9 9)))
 (let (($x6596 (= cell_1_9 8)))
 (let (($x5293 (= cell_1_9 7)))
 (let (($x6896 (= cell_1_9 6)))
 (let (($x254 (= cell_1_9 5)))
 (let (($x8958 (= cell_1_9 4)))
 (let (($x7665 (= cell_1_9 3)))
 (let (($x8949 (= cell_1_9 2)))
 (let (($x7727 (= cell_1_9 1)))
 (or $x7727 $x8949 $x7665 $x8958 $x254 $x6896 $x5293 $x6596 $x7539)))))))))))
(assert
 (let (($x6290 (= cell_2_9 9)))
 (let (($x1570 (= cell_2_9 8)))
 (let (($x7515 (= cell_2_9 7)))
 (let (($x7580 (= cell_2_9 6)))
 (let (($x762 (= cell_2_9 5)))
 (let (($x8381 (= cell_2_9 4)))
 (let (($x2717 (= cell_2_9 3)))
 (let (($x6088 (= cell_2_9 2)))
 (let (($x6075 (= cell_2_9 1)))
 (or $x6075 $x6088 $x2717 $x8381 $x762 $x7580 $x7515 $x1570 $x6290)))))))))))
(assert
 (let (($x8648 (= cell_3_9 9)))
 (let (($x6619 (= cell_3_9 8)))
 (let (($x7226 (= cell_3_9 7)))
 (let (($x9702 (= cell_3_9 6)))
 (let (($x5917 (= cell_3_9 5)))
 (let (($x496 (= cell_3_9 4)))
 (let (($x5331 (= cell_3_9 3)))
 (let (($x8496 (= cell_3_9 2)))
 (let (($x2161 (= cell_3_9 1)))
 (or $x2161 $x8496 $x5331 $x496 $x5917 $x9702 $x7226 $x6619 $x8648)))))))))))
(assert
 (let (($x4665 (= cell_4_9 9)))
 (let (($x9501 (= cell_4_9 8)))
 (let (($x5027 (= cell_4_9 7)))
 (let (($x9725 (= cell_4_9 6)))
 (let (($x1283 (= cell_4_9 5)))
 (let (($x345 (= cell_4_9 4)))
 (let (($x4615 (= cell_4_9 3)))
 (let (($x7912 (= cell_4_9 2)))
 (let (($x4179 (= cell_4_9 1)))
 (or $x4179 $x7912 $x4615 $x345 $x1283 $x9725 $x5027 $x9501 $x4665)))))))))))
(assert
 (let (($x2937 (= cell_5_9 1)))
 (or $x2937 (= cell_5_9 2) (= cell_5_9 3) (= cell_5_9 4) (= cell_5_9 5) (= cell_5_9 6) (= cell_5_9 7) (= cell_5_9 8) (= cell_5_9 9))))
(assert
 (let (($x3297 (= cell_6_9 9)))
 (let (($x4905 (= cell_6_9 8)))
 (let (($x244 (= cell_6_9 7)))
 (let (($x1534 (= cell_6_9 6)))
 (let (($x2840 (= cell_6_9 5)))
 (let (($x3656 (= cell_6_9 4)))
 (let (($x2897 (= cell_6_9 3)))
 (let (($x9895 (= cell_6_9 2)))
 (let (($x795 (= cell_6_9 1)))
 (or $x795 $x9895 $x2897 $x3656 $x2840 $x1534 $x244 $x4905 $x3297)))))))))))
(assert
 (let (($x7695 (= cell_7_9 2)))
 (or (= cell_7_9 1) $x7695 (= cell_7_9 3) (= cell_7_9 4) (= cell_7_9 5) (= cell_7_9 6) (= cell_7_9 7) (= cell_7_9 8) (= cell_7_9 9))))
(assert
 (let (($x2260 (= cell_8_9 9)))
 (let (($x3344 (= cell_8_9 8)))
 (let (($x4544 (= cell_8_9 7)))
 (let (($x4810 (= cell_8_9 6)))
 (let (($x3452 (= cell_8_9 5)))
 (let (($x9304 (= cell_8_9 4)))
 (let (($x7128 (= cell_8_9 3)))
 (let (($x8615 (= cell_8_9 2)))
 (let (($x2229 (= cell_8_9 1)))
 (or $x2229 $x8615 $x7128 $x9304 $x3452 $x4810 $x4544 $x3344 $x2260)))))))))))
(assert
 (let (($x6210 (= cell_9_9 2)))
 (let (($x446 (= cell_9_9 1)))
 (or $x446 $x6210 (= cell_9_9 3) (= cell_9_9 4) (= cell_9_9 5) (= cell_9_9 6) (= cell_9_9 7) (= cell_9_9 8) (= cell_9_9 9)))))
(assert
 (and (distinct cell_1_1 cell_1_2 cell_1_3 cell_1_4 cell_1_5 cell_1_6 cell_1_7 cell_1_8 cell_1_9) true))
(assert
 (and (distinct cell_2_1 cell_2_2 cell_2_3 cell_2_4 cell_2_5 cell_2_6 cell_2_7 cell_2_8 cell_2_9) true))
(assert
 (and (distinct cell_3_1 cell_3_2 cell_3_3 cell_3_4 cell_3_5 cell_3_6 cell_3_7 cell_3_8 cell_3_9) true))
(assert
 (and (distinct cell_4_1 cell_4_2 cell_4_3 cell_4_4 cell_4_5 cell_4_6 cell_4_7 cell_4_8 cell_4_9) true))
(assert
 (and (distinct cell_5_1 cell_5_2 cell_5_3 cell_5_4 cell_5_5 cell_5_6 cell_5_7 cell_5_8 cell_5_9) true))
(assert
 (and (distinct cell_6_1 cell_6_2 cell_6_3 cell_6_4 cell_6_5 cell_6_6 cell_6_7 cell_6_8 cell_6_9) true))
(assert
 (and (distinct cell_7_1 cell_7_2 cell_7_3 cell_7_4 cell_7_5 cell_7_6 cell_7_7 cell_7_8 cell_7_9) true))
(assert
 (and (distinct cell_8_1 cell_8_2 cell_8_3 cell_8_4 cell_8_5 cell_8_6 cell_8_7 cell_8_8 cell_8_9) true))
(assert
 (and (distinct cell_9_1 cell_9_2 cell_9_3 cell_9_4 cell_9_5 cell_9_6 cell_9_7 cell_9_8 cell_9_9) true))
(assert
 (and (distinct cell_1_1 cell_2_1 cell_3_1 cell_4_1 cell_5_1 cell_6_1 cell_7_1 cell_8_1 cell_9_1) true))
(assert
 (and (distinct cell_1_2 cell_2_2 cell_3_2 cell_4_2 cell_5_2 cell_6_2 cell_7_2 cell_8_2 cell_9_2) true))
(assert
 (and (distinct cell_1_3 cell_2_3 cell_3_3 cell_4_3 cell_5_3 cell_6_3 cell_7_3 cell_8_3 cell_9_3) true))
(assert
 (and (distinct cell_1_4 cell_2_4 cell_3_4 cell_4_4 cell_5_4 cell_6_4 cell_7_4 cell_8_4 cell_9_4) true))
(assert
 (and (distinct cell_1_5 cell_2_5 cell_3_5 cell_4_5 cell_5_5 cell_6_5 cell_7_5 cell_8_5 cell_9_5) true))
(assert
 (and (distinct cell_1_6 cell_2_6 cell_3_6 cell_4_6 cell_5_6 cell_6_6 cell_7_6 cell_8_6 cell_9_6) true))
(assert
 (and (distinct cell_1_7 cell_2_7 cell_3_7 cell_4_7 cell_5_7 cell_6_7 cell_7_7 cell_8_7 cell_9_7) true))
(assert
 (and (distinct cell_1_8 cell_2_8 cell_3_8 cell_4_8 cell_5_8 cell_6_8 cell_7_8 cell_8_8 cell_9_8) true))
(assert
 (and (distinct cell_1_9 cell_2_9 cell_3_9 cell_4_9 cell_5_9 cell_6_9 cell_7_9 cell_8_9 cell_9_9) true))
(assert
 (and (distinct cell_1_1 cell_1_2 cell_1_3 cell_2_1 cell_2_2 cell_2_3 cell_3_1 cell_3_2 cell_3_3) true))
(assert
 (and (distinct cell_1_4 cell_1_5 cell_1_6 cell_2_4 cell_2_5 cell_2_6 cell_3_4 cell_3_5 cell_3_6) true))
(assert
 (and (distinct cell_1_7 cell_1_8 cell_1_9 cell_2_7 cell_2_8 cell_2_9 cell_3_7 cell_3_8 cell_3_9) true))
(assert
 (and (distinct cell_4_1 cell_4_2 cell_4_3 cell_5_1 cell_5_2 cell_5_3 cell_6_1 cell_6_2 cell_6_3) true))
(assert
 (and (distinct cell_4_4 cell_4_5 cell_4_6 cell_5_4 cell_5_5 cell_5_6 cell_6_4 cell_6_5 cell_6_6) true))
(assert
 (and (distinct cell_4_7 cell_4_8 cell_4_9 cell_5_7 cell_5_8 cell_5_9 cell_6_7 cell_6_8 cell_6_9) true))
(assert
 (and (distinct cell_7_1 cell_7_2 cell_7_3 cell_8_1 cell_8_2 cell_8_3 cell_9_1 cell_9_2 cell_9_3) true))
(assert
 (and (distinct cell_7_4 cell_7_5 cell_7_6 cell_8_4 cell_8_5 cell_8_6 cell_9_4 cell_9_5 cell_9_6) true))
(assert
 (and (distinct cell_7_7 cell_7_8 cell_7_9 cell_8_7 cell_8_8 cell_8_9 cell_9_7 cell_9_8 cell_9_9) true))
(assert
 (let (($x3250 (and (distinct cell_5_9 cell_6_8 cell_7_7 cell_8_6) true)))
 (let (($x425 (and (distinct cell_2_9 cell_3_8 cell_4_7 cell_5_6 cell_6_5 cell_7_4 cell_8_3 cell_9_2) true)))
 (let (($x3544 (and (distinct cell_1_8 cell_2_7 cell_3_6 cell_4_5 cell_5_4 cell_6_3 cell_7_2 cell_8_1) true)))
 (let (($x6024 (and (distinct cell_1_5 cell_2_4 cell_3_3 cell_4_2) true)))
 (let (($x6154 (and (distinct cell_5_1 cell_6_2 cell_7_3 cell_8_4) true)))
 (let (($x2542 (and (distinct cell_2_1 cell_3_2 cell_4_3 cell_5_4 cell_6_5 cell_7_6 cell_8_7 cell_9_8) true)))
 (let (($x970 (and (distinct cell_1_2 cell_2_3 cell_3_4 cell_4_5 cell_5_6 cell_6_7 cell_7_8 cell_8_9) true)))
 (let (($x1187 (and (distinct cell_1_5 cell_2_6 cell_3_7 cell_4_8) true)))
 (and $x1187 $x970 $x2542 $x6154 $x6024 $x3544 $x425 $x3250))))))))))
(assert
 (and (distinct cell_2_9 3) true))
(check-sat)
